; benchmark generated from python API
(set-info :status unknown)
(declare-fun R_S1_V3 () Bool)
(declare-fun R_S1_V6 () Bool)
(declare-fun R_S1_V5 () Bool)
(declare-fun R_S1_V4 () Bool)
(declare-fun W_S1_V3 () Bool)
(declare-fun W_S1_V5 () Bool)
(declare-fun W_S1_V2 () Bool)
(declare-fun W_S1_V6 () Bool)
(declare-fun R_E1_V4 () Bool)
(declare-fun R_E1_V6 () Bool)
(declare-fun R_E1_V5 () Bool)
(declare-fun W_S1_V4 () Bool)
(declare-fun W_S1_V1 () Bool)
(declare-fun R_S1_V2 () Bool)
(declare-fun R_S1_V1 () Bool)
(declare-fun R_E1_V2 () Bool)
(declare-fun R_E2_V1 () Bool)
(declare-fun R_E1_V3 () Bool)
(declare-fun R_E1_V1 () Bool)
(declare-fun R_E2_V3 () Bool)
(assert
 (let (($x1051 (not R_S1_V3)))
 (let (($x2170 (not R_S1_V6)))
 (let (($x1344 (not R_S1_V5)))
 (let (($x5363 (not R_S1_V4)))
 (let (($x2729 (not (and W_S1_V3 $x5363 $x1344 $x2170 $x1051))))
 (let (($x3260 (not (and (not R_E1_V4) (not W_S1_V6) (not W_S1_V2) (not W_S1_V5)))))
 (let (($x3667 (not (and (not R_E1_V4) (not R_E1_V6) (not W_S1_V2) (not W_S1_V5)))))
 (let (($x398 (not (and (not R_E1_V4) (not R_E1_V5) (not W_S1_V6) (not W_S1_V2)))))
 (let (($x2652 (not (and (not R_E1_V4) (not R_E1_V5) (not R_E1_V6) (not W_S1_V2)))))
 (let (($x329 (not (and (not W_S1_V6) (not W_S1_V2) (not W_S1_V5) (not W_S1_V4)))))
 (let (($x30 (forall ((V4_0 Int) )(forall ((V5_0 Int) )(forall ((V6_0 Int) )(forall ((V2_0 Int) )(forall ((E2_!7947 Int) )(forall ((E2_!7948 Int) )(forall ((E2_!7962 Int) )(forall ((S1_V1_!7952 Int) )(forall ((S1_V1_!7958 Int) )(forall ((S1_V1_!7967 Int) )(forall ((S1_V2_!7953 Int) )(forall ((S1_V2_!7959 Int) )(forall ((S1_V2_!7968 Int) )(forall ((S1_V3_!7954 Int) )(forall ((S1_V3_!7960 Int) )(forall ((S1_V3_!7969 Int) )(forall ((E1_!7946 Int) )(forall ((E1_!7961 Int) )(forall ((E1_!7963 Int) )(forall ((E1_!7970 Int) )(forall ((S1_V5_!7950 Int) )(forall ((S1_V5_!7956 Int) )(forall ((S1_V5_!7965 Int) )(forall ((S1_V4_!7949 Int) )(forall ((S1_V4_!7955 Int) )(forall ((S1_V4_!7964 Int) )(forall ((S1_V6_!7951 Int) )(forall ((S1_V6_!7957 Int) )(forall ((S1_V6_!7966 Int) )(let ((?x2764 (ite W_S1_V3 S1_V3_!7969 E2_!7962)))
 (let ((?x3730 (+ 1 ?x2764)))
 (let ((?x2924 (ite W_S1_V3 S1_V3_!7954 E2_!7948)))
 (let ((?x529 (+ 1 ?x2924)))
 (let ((?x1395 (ite W_S1_V3 S1_V3_!7960 ?x529)))
 (let (($x2328 (and (= (ite W_S1_V4 S1_V4_!7955 V4_0) (ite W_S1_V4 S1_V4_!7964 V4_0)) (= (ite W_S1_V5 S1_V5_!7956 V5_0) (ite W_S1_V5 S1_V5_!7965 V5_0)) (= (ite W_S1_V6 S1_V6_!7957 V6_0) (ite W_S1_V6 S1_V6_!7966 V6_0)) (= (ite W_S1_V1 S1_V1_!7958 E1_!7946) (+ (- 1) E1_!7970)) (= (ite W_S1_V2 S1_V2_!7959 V2_0) (ite W_S1_V2 S1_V2_!7968 V2_0)) (= ?x1395 ?x3730))))
 (let (($x2344 (and (not (<= V4_0 E2_!7947)) (not (<= V2_0 E1_!7946)) (not (<= V4_0 E2_!7948)) (not (<= (ite W_S1_V4 S1_V4_!7949 V4_0) ?x529)) (>= ?x1395 (+ (- 1) (ite W_S1_V4 S1_V4_!7955 V4_0))) (>= (ite W_S1_V1 S1_V1_!7958 E1_!7946) (+ (- 1) (ite W_S1_V2 S1_V2_!7959 V2_0))) (not (<= V2_0 E1_!7961)) (not (<= V4_0 E2_!7962)) (not (<= V2_0 E1_!7963)) (>= (ite W_S1_V1 S1_V1_!7967 E1_!7963) (+ (- 1) (ite W_S1_V2 S1_V2_!7968 V2_0))) (not (<= (ite W_S1_V4 S1_V4_!7964 V4_0) ?x3730)) (>= E1_!7970 (ite W_S1_V2 S1_V2_!7968 V2_0)) (>= ?x2764 (+ (- 2) (ite W_S1_V4 S1_V4_!7964 V4_0))))))
 (let (($x2005 (= S1_V6_!7966 S1_V6_!7957)))
 (let (($x3728 (not R_S1_V2)))
 (let (($x2230 (or $x3728 (= V2_0 (ite W_S1_V2 S1_V2_!7953 V2_0)))))
 (let (($x2170 (not R_S1_V6)))
 (let (($x2545 (or $x2170 (= V6_0 (ite W_S1_V6 S1_V6_!7951 V6_0)))))
 (let (($x1344 (not R_S1_V5)))
 (let (($x2210 (or $x1344 (= V5_0 (ite W_S1_V5 S1_V5_!7950 V5_0)))))
 (let (($x5363 (not R_S1_V4)))
 (let (($x6011 (or $x5363 (= V4_0 (ite W_S1_V4 S1_V4_!7949 V4_0)))))
 (let (($x1063 (and $x6011 $x2210 $x2545 (or (not R_S1_V1) (= E1_!7963 (ite W_S1_V1 S1_V1_!7952 E1_!7946))) $x2230 (or (not R_S1_V3) (= E2_!7962 ?x529)))))
 (let (($x6014 (not $x1063)))
 (let (($x6029 (= S1_V6_!7966 S1_V6_!7951)))
 (let (($x4264 (and (or (not R_S1_V1) (= E1_!7963 E1_!7946)) (or (not R_S1_V3) (= E2_!7962 E2_!7948)))))
 (let (($x3696 (not $x4264)))
 (let (($x864 (= S1_V6_!7951 S1_V6_!7957)))
 (let (($x1284 (and $x6011 $x2210 $x2545 (or (not R_S1_V1) (= E1_!7946 (ite W_S1_V1 S1_V1_!7952 E1_!7946))) $x2230 (or (not R_S1_V3) (= E2_!7948 ?x529)))))
 (let (($x1912 (not $x1284)))
 (let (($x4874 (= S1_V4_!7955 S1_V4_!7964)))
 (let (($x2577 (and (or $x5363 (= (ite W_S1_V4 S1_V4_!7949 V4_0) V4_0)) (or $x1344 (= (ite W_S1_V5 S1_V5_!7950 V5_0) V5_0)) (or $x2170 (= (ite W_S1_V6 S1_V6_!7951 V6_0) V6_0)) (or (not R_S1_V1) (= (ite W_S1_V1 S1_V1_!7952 E1_!7946) E1_!7963)) (or $x3728 (= (ite W_S1_V2 S1_V2_!7953 V2_0) V2_0)) (or (not R_S1_V3) (= ?x2924 (+ (- 1) E2_!7962))))))
 (let (($x1822 (not $x2577)))
 (let (($x346 (= S1_V4_!7949 S1_V4_!7964)))
 (let (($x5590 (and (or (not R_S1_V1) (= E1_!7946 E1_!7963)) (or (not R_S1_V3) (= E2_!7948 E2_!7962)))))
 (let (($x200 (not $x5590)))
 (let (($x2125 (and (or (not R_E1_V4) (= (ite W_S1_V4 S1_V4_!7964 V4_0) V4_0)) (or (not R_E1_V5) (= (ite W_S1_V5 S1_V5_!7965 V5_0) V5_0)) (or (not R_E1_V6) (= (ite W_S1_V6 S1_V6_!7966 V6_0) V6_0)) (or (not R_E1_V2) (= (ite W_S1_V2 S1_V2_!7968 V2_0) V2_0)))))
 (let (($x1500 (= E1_!7963 E1_!7970)))
 (let (($x5115 (and (or (not R_E1_V4) (= V4_0 (ite W_S1_V4 S1_V4_!7964 V4_0))) (or (not R_E1_V5) (= V5_0 (ite W_S1_V5 S1_V5_!7965 V5_0))) (or (not R_E1_V6) (= V6_0 (ite W_S1_V6 S1_V6_!7966 V6_0))) (or (not R_E1_V2) (= V2_0 (ite W_S1_V2 S1_V2_!7968 V2_0))))))
 (let (($x2363 (not $x5115)))
 (let (($x705 (= E1_!7963 E1_!7946)))
 (let (($x5775 (= E1_!7961 E1_!7946)))
 (let (($x4625 (and (= E2_!7947 E2_!7948) (or (not (or (not R_E2_V1) (= E1_!7946 E1_!7961))) (= E2_!7947 E2_!7962)) (or (not (or (not R_E2_V1) $x5775)) (= E2_!7962 E2_!7948)) (or $x1912 (= S1_V1_!7952 S1_V1_!7958)) (or $x200 (= S1_V1_!7952 S1_V1_!7967)) (or $x1822 (= S1_V1_!7958 S1_V1_!7967)) (or $x1912 (= S1_V2_!7953 S1_V2_!7959)) (or $x3696 (= S1_V2_!7968 S1_V2_!7953)) (or $x6014 (= S1_V2_!7968 S1_V2_!7959)) (or $x1912 (= S1_V3_!7954 S1_V3_!7960)) (or $x3696 (= S1_V3_!7969 S1_V3_!7954)) (or $x6014 (= S1_V3_!7969 S1_V3_!7960)) $x5775 (or $x2363 (= E1_!7961 E1_!7970)) $x705 (= E1_!7963 E1_!7961) (or $x2363 $x1500) (or (not $x2125) (= E1_!7970 E1_!7946)) (or $x1912 (= S1_V5_!7950 S1_V5_!7956)) (or $x200 (= S1_V5_!7950 S1_V5_!7965)) (or $x1822 (= S1_V5_!7956 S1_V5_!7965)) (or $x1912 (= S1_V4_!7949 S1_V4_!7955)) (or $x200 $x346) (or $x1822 $x4874) (or $x1912 $x864) (or $x3696 $x6029) (or $x6014 $x2005))))
 (or (not $x4625) (not $x2344) $x2328)))))))))))))))))))))))))))))))))))))))
 )
 )
 )
 )
 )
 )
 )
 )
 )
 )
 )
 )
 )
 )
 )
 )
 )
 )
 )
 )
 )
 )
 )
 )
 )
 )
 )
 )
 ))
 (let (($x2525 (or W_S1_V4 W_S1_V5 W_S1_V6 W_S1_V1 W_S1_V2 W_S1_V3)))
 (let (($x3668 (not W_S1_V4)))
 (let (($x2108 (not W_S1_V5)))
 (let (($x1974 (not W_S1_V1)))
 (let (($x1291 (not W_S1_V6)))
 (let (($x3728 (not R_S1_V2)))
 (let (($x3682 (and $x3728 $x1051 $x1291 $x1974 $x2108 $x3668)))
 (let (($x901 (and $x1344 $x3728 $x1051 $x1291 $x1974 $x3668)))
 (let (($x926 (and $x1344 $x2170 $x3728 $x1051 $x1974 $x3668)))
 (let (($x4149 (not W_S1_V3)))
 (let (($x572 (not R_S1_V1)))
 (let (($x295 (and $x5363 $x1344 $x2170 $x572 $x3728 $x4149)))
 (let (($x1638 (not W_S1_V2)))
 (let (($x4178 (and $x5363 $x2170 $x572 $x1638 $x2108 $x4149)))
 (let (($x3133 (and $x5363 $x1344 $x572 $x1291 $x1638 $x4149)))
 (let (($x1221 (and $x5363 $x1344 $x2170 $x572 $x1638 $x4149)))
 (let (($x1682 (and $x5363 $x3728 $x1051 $x1291 $x1974 $x2108)))
 (let (($x664 (and $x5363 $x1344 $x3728 $x1051 $x1291 $x1974)))
 (let (($x5870 (and $x5363 $x2170 $x3728 $x1051 $x1974 $x2108)))
 (let (($x4950 (and $x5363 $x572 $x1291 $x1638 $x2108 $x4149)))
 (let (($x3632 (and $x5363 $x1344 $x572 $x1051 $x1291 $x1638)))
 (let (($x5467 (and $x5363 $x572 $x3728 $x1291 $x2108 $x4149)))
 (let (($x3275 (and $x5363 $x2170 $x572 $x3728 $x2108 $x4149)))
 (let (($x1220 (and $x5363 $x1344 $x572 $x3728 $x1291 $x4149)))
 (let (($x1000 (and $x5363 $x1344 $x2170 $x572 $x3728 $x1051)))
 (let (($x3737 (and $x572 $x3728 $x1051 $x1291 $x2108 $x3668)))
 (let (($x1586 (and $x2170 $x572 $x3728 $x1051 $x2108 $x3668)))
 (let (($x1288 (and $x5363 $x2170 $x572 $x1051 $x1638 $x2108)))
 (let (($x1215 (and $x2170 $x3728 $x1051 $x1974 $x2108 $x3668)))
 (let (($x3625 (and $x1344 $x2170 $x572 $x3728 $x1051 $x3668)))
 (let (($x5995 (and $x5363 $x1344 $x2170 $x3728 $x1051 $x1974)))
 (let (($x1012 (and $x5363 $x1344 $x2170 $x572 $x1051 $x1638)))
 (let (($x3014 (and $x3668 $x4149)))
 (let (($x3123 (and $x1638 $x1974)))
 (let (($x3819 (or $x3123 $x3014 $x1012 $x5995 $x3625 $x1215 $x1288 $x1586 $x3737 $x1000 $x1220 $x3275 $x5467 $x3632 $x4950 $x5870 $x664 $x1682 $x1221 $x3133 $x4178 $x295 $x926 $x901 $x3682)))
 (let (($x5351 (not R_E1_V3)))
 (let (($x4983 (not R_E1_V1)))
 (let (($x1744 (not R_E2_V3)))
 (and (and $x1744 $x4983 $x5351 $x3819 $x2525 $x30) $x329 $x2652 $x398 $x3667 $x3260 $x2729)))))))))))))))))))))))))))))))))))))))))))))))))))
(check-sat)
